1561122
4,48,2,63,16,59,36,50,28,31,22,52,33,57,18,10,14,44,53,37,62,39,51,35,68,8,15,58,9,17,27,45,65,13,54,1,12,42,32,56,40,5,19,49,23,60,29,6,25,30,41,64,11,66,26,55,34,46,43,7,67,38,21,3,61,24,47,20,4